StudentsNr = 10;
InstructorsNr = 68;
DaysNr = 2;
SlotsPerDay = 60;
AvailabilitySlotsLenght = 20;
RoomNr = 2;
ProgrammNr = 1;
DegreeNr = 3;
RolesNr = 1;
CoursesNr = 3;
InstructorsProgramm = [{1}, {1}, {1}, {1}, {1}, {1}, {1}, {1}, {1}, {1}, {1}, {1}, {1}, {1}, {1}, {1}, {1}, {1}, {1}, {1}, {1}, {1}, {1}, {1}, {1}, {1}, {1}, {1}, {1}, {1}, {1}, {1}, {1}, {1}, {1}, {1}, {1}, {1}, {1}, {1}, {1}, {1}, {1}, {1}, {1}, {1}, {1}, {1}, {1}, {1}, {1}, {1}, {1}, {1}, {1}, {1}, {1}, {1}, {1}, {1}, {1}, {1}, {1}, {1}, {1}, {1}, {1}, {1}];
InstructorRolesPerProgramm = [|{3, 4, 5, 6, 9, 11, 12, 13, 14, 17, 18, 20, 24, 25, 26, 27, 29, 30, 34, 35, 36, 38, 39, 40, 41, 42, 43, 44, 46, 48, 49, 51, 52, 60, 61, 63, 64, 65, 66, 68}|];
InstructorsAvailability = [|1, 1, 1, 1, 1, 0, |0, 0, 1, 1, 1, 0, |0, 1, 1, 1, 1, 1, |1, 1, 1, 1, 1, 1, |0, 1, 1, 1, 1, 1, |0, 1, 1, 1, 0, 1, |1, 1, 1, 1, 1, 1, |1, 1, 1, 1, 1, 1, |0, 1, 1, 1, 1, 1, |1, 1, 1, 0, 0, 1, |1, 1, 1, 1, 1, 1, |1, 0, 0, 1, 1, 1, |0, 0, 1, 1, 1, 1, |0, 0, 1, 1, 1, 1, |0, 1, 1, 1, 0, 1, |1, 1, 1, 1, 1, 1, |1, 1, 0, 0, 1, 1, |0, 0, 1, 1, 1, 1, |1, 1, 1, 1, 1, 1, |0, 1, 1, 0, 1, 1, |0, 1, 1, 1, 1, 1, |1, 1, 1, 1, 1, 1, |1, 1, 1, 1, 1, 0, |1, 1, 1, 1, 0, 1, |0, 1, 1, 0, 0, 1, |1, 1, 1, 0, 1, 1, |0, 1, 1, 1, 1, 1, |0, 1, 1, 1, 1, 1, |1, 1, 1, 1, 1, 0, |0, 1, 1, 1, 1, 1, |0, 0, 1, 1, 1, 1, |0, 1, 1, 1, 1, 1, |0, 0, 0, 1, 1, 1, |1, 1, 1, 1, 1, 0, |0, 0, 0, 1, 1, 1, |1, 1, 0, 1, 1, 0, |0, 1, 1, 0, 1, 1, |1, 0, 1, 1, 1, 1, |1, 1, 1, 1, 1, 1, |0, 0, 0, 1, 1, 1, |0, 0, 1, 1, 1, 1, |1, 1, 1, 1, 1, 1, |0, 1, 1, 1, 1, 1, |1, 1, 1, 1, 1, 1, |1, 1, 1, 0, 0, 0, |1, 1, 1, 1, 1, 1, |1, 1, 1, 1, 0, 1, |0, 1, 1, 1, 1, 1, |1, 1, 1, 1, 1, 1, |1, 0, 0, 1, 1, 0, |1, 1, 1, 1, 1, 1, |0, 0, 1, 1, 1, 1, |0, 1, 1, 1, 1, 1, |0, 1, 1, 1, 1, 0, |1, 0, 1, 1, 1, 1, |1, 1, 0, 1, 1, 1, |1, 1, 1, 0, 0, 1, |0, 0, 0, 1, 1, 1, |0, 0, 0, 0, 1, 0, |0, 0, 0, 1, 0, 1, |1, 1, 1, 1, 1, 1, |1, 1, 1, 1, 0, 1, |0, 0, 0, 0, 0, 0, |1, 1, 1, 1, 1, 1, |1, 1, 1, 1, 1, 1, |0, 0, 1, 1, 1, 1, |1, 1, 1, 1, 1, 1, |0, 1, 1, 1, 1, 1|];
StudentsProgramm = [1, 1, 1, 1, 1, 1, 1, 1, 1, 1];
StudentsDegree = [2, 3, 3, 2, 2, 3, 2, 3, 2, 3];
StudentsSupervisorId = [52, 48, 17, 32, 14, 24, 66, 27, 16, 40];
StudentsCourseIds = [{1, 2, 3}, {2, 3}, {1, 3}, {1, 2, 3}, {1, 2, 3}, {1, 2}, {1, 2, 3}, {1, 3}, {1, 2, 3}, {1, 3}];
StudentsAvailability = [|0, 1, 1, 1, 1, 0, |0, 0, 1, 1, 0, 0, |1, 0, 0, 1, 1, 1, |0, 1, 1, 1, 1, 1, |0, 0, 1, 0, 1, 0, |1, 1, 1, 1, 1, 1, |0, 0, 0, 0, 1, 1, |0, 0, 0, 1, 1, 1, |0, 1, 1, 1, 1, 1, |0, 1, 1, 1, 1, 1|];
TheoryticalMinCard = [0, 0, 0, 1, 0, 0, 0, 0, 1, 0];
CoursesInstructorIds = [{1, 2, 3, 5, 6, 8, 9, 10, 11, 15, 17, 18, 19, 20, 21, 24, 29, 30, 33, 35, 36, 38, 41, 42, 43, 45, 46, 48, 50, 51, 54, 56, 58, 60, 62, 63, 64, 67}, {5, 7, 17, 22, 30, 33, 38, 42, 45, 46, 51, 53, 56, 60, 61, 62, 63}, {10, 18, 27, 30, 35, 46, 53, 65}];
RolesDemands = [17];
RolesContinuity = [];
ExamLen = [2, 2, 2, 2, 2, 2, 2, 2, 2, 2];
LunchTsMinLen = 2;
LunchStarts = [23..34, 79..104];
SupervisorAvailable = 0;
OptimalLunchLenght = [1, 3];
OptimalStartTs = [1, 1];
OptimalFinishTs = [0, 60];
MinimizeRooms = 400;
RolesSoftContinuity = [|1|4|];
SameDegreeInRoom = 10;
Mergeability = 0;
